sat
(:max-memory          19.97
 :memory              18.07
 :nlsat-conflicts     1
 :nlsat-decisions     1
 :nlsat-learned-added 1
 :nlsat-propagations  15
 :nlsat-stages        5
 :num-allocs          94527
 :rlimit-count        2048176
 :time                3.43
 :total-time          3.43)
